(declare-const y0 Real)
(declare-const y1 Real)
(declare-const y2 Real)
(declare-const y3 Real)
(declare-const y4 Real)
(declare-const y5 Real)
(declare-const y6 Real)
(declare-const y7 Real)
(declare-const y8 Real)
(declare-const y9 Real)
(declare-const y10 Real)
(declare-const y11 Real)
(assert (= y11 44))
(assert (< 60 (+ 76 91)))
(assert (= (< y3 y1) (= 51 y4)))
(assert (= (< y2 y7) (= y11 9)))
(assert (= (= (= y6 81) (< 3 (+ 75 39))) (= (= y0 (+ y8 y2)) true)))
(assert true)
(assert (< 97 (+ 15 y4)))
(assert (= 28 y6))
(assert (< 48 98))
(check-sat)
